Route 1: 0 81 55 85 91 4 28 20 0
Route 2: 0 14 6 26 56 54 47 0
Route 3: 0 19 44 68 10 69 39 16 90 27 63 12 57 0
Route 4: 0 74 89 67 33 72 30 93 99 36 48 7 0
Route 5: 0 41 62 3 82 1 32 97 100 94 64 0
Route 6: 0 83 98 79 86 34 70 71 65 77 46 76 35 0
Route 7: 0 24 73 8 38 22 17 15 23 66 5 0
Route 8: 0 43 29 45 2 9 52 61 53 21 50 0
Route 9: 0 60 18 88 96 11 49 25 31 42 0
Route 10: 0 92 87 95 80 40 51 59 37 78 13 0
Route 11: 0 84 58 75 0
